(set-logic QF_LRA)
(declare-fun T1 () Real )
(declare-fun T2 () Real )
(declare-fun T3 () Real )
(declare-fun T4 () Real )
(declare-fun T5 () Real )
(declare-fun T6 () Real )
(declare-fun T7 () Real )
(declare-fun T8 () Real )
(declare-fun Z () Real )
(assert ( and 
(or ( <= ( + T1 60 ) T2 ) ( <= ( + T2 26 ) T1 ) )
(or ( <= ( + T1 90 )  ( + T2 26 ) ) ( <= ( + T2 118 )( + T1 60 ) ) )
(or ( <= ( + T1 137 )  ( + T2 118 ) ) ( <= ( + T2 128 )( + T1 90 ) ) )
(or ( <= ( + T1 161 )  ( + T2 128 ) ) ( <= ( + T2 174 )( + T1 137 ) ) )
(or ( <= ( + T1 257 )  ( + T2 174 ) ) ( <= ( + T2 242 )( + T1 161 ) ) )
(or ( <= ( + T1 311 )  ( + T2 242 ) ) ( <= ( + T2 314 )( + T1 257 ) ) )
(or ( <= ( + T1 60 ) T3 ) ( <= ( + T3 26 ) T1 ) )
(or ( <= ( + T1 90 )  ( + T3 26 ) ) ( <= ( + T3 34 )( + T1 60 ) ) )
(or ( <= ( + T1 137 )  ( + T3 34 ) ) ( <= ( + T3 63 )( + T1 90 ) ) )
(or ( <= ( + T1 161 )  ( + T3 63 ) ) ( <= ( + T3 157 )( + T1 137 ) ) )
(or ( <= ( + T1 257 )  ( + T3 157 ) ) ( <= ( + T3 185 )( + T1 161 ) ) )
(or ( <= ( + T1 311 )  ( + T3 185 ) ) ( <= ( + T3 268 )( + T1 257 ) ) )
(or ( <= ( + T1 60 ) T4 ) ( <= ( + T4 41 ) T1 ) )
(or ( <= ( + T1 90 )  ( + T4 41 ) ) ( <= ( + T4 69 )( + T1 60 ) ) )
(or ( <= ( + T1 137 )  ( + T4 69 ) ) ( <= ( + T4 117 )( + T1 90 ) ) )
(or ( <= ( + T1 161 )  ( + T4 117 ) ) ( <= ( + T4 185 )( + T1 137 ) ) )
(or ( <= ( + T1 257 )  ( + T4 185 ) ) ( <= ( + T4 277 )( + T1 161 ) ) )
(or ( <= ( + T1 311 )  ( + T4 277 ) ) ( <= ( + T4 278 )( + T1 257 ) ) )
(or ( <= ( + T1 60 ) T5 ) ( <= ( + T5 54 ) T1 ) )
(or ( <= ( + T1 90 )  ( + T5 54 ) ) ( <= ( + T5 86 )( + T1 60 ) ) )
(or ( <= ( + T1 137 )  ( + T5 86 ) ) ( <= ( + T5 154 )( + T1 90 ) ) )
(or ( <= ( + T1 161 )  ( + T5 154 ) ) ( <= ( + T5 214 )( + T1 137 ) ) )
(or ( <= ( + T1 257 )  ( + T5 214 ) ) ( <= ( + T5 267 )( + T1 161 ) ) )
(or ( <= ( + T1 311 )  ( + T5 267 ) ) ( <= ( + T5 349 )( + T1 257 ) ) )
(or ( <= ( + T1 60 ) T6 ) ( <= ( + T6 62 ) T1 ) )
(or ( <= ( + T1 90 )  ( + T6 62 ) ) ( <= ( + T6 126 )( + T1 60 ) ) )
(or ( <= ( + T1 137 )  ( + T6 126 ) ) ( <= ( + T6 137 )( + T1 90 ) ) )
(or ( <= ( + T1 161 )  ( + T6 137 ) ) ( <= ( + T6 198 )( + T1 137 ) ) )
(or ( <= ( + T1 257 )  ( + T6 198 ) ) ( <= ( + T6 285 )( + T1 161 ) ) )
(or ( <= ( + T1 311 )  ( + T6 285 ) ) ( <= ( + T6 344 )( + T1 257 ) ) )
(or ( <= ( + T1 60 ) T7 ) ( <= ( + T7 14 ) T1 ) )
(or ( <= ( + T1 90 )  ( + T7 14 ) ) ( <= ( + T7 79 )( + T1 60 ) ) )
(or ( <= ( + T1 137 )  ( + T7 79 ) ) ( <= ( + T7 81 )( + T1 90 ) ) )
(or ( <= ( + T1 161 )  ( + T7 81 ) ) ( <= ( + T7 156 )( + T1 137 ) ) )
(or ( <= ( + T1 257 )  ( + T7 156 ) ) ( <= ( + T7 166 )( + T1 161 ) ) )
(or ( <= ( + T1 311 )  ( + T7 166 ) ) ( <= ( + T7 188 )( + T1 257 ) ) )
(or ( <= ( + T1 60 ) T8 ) ( <= ( + T8 46 ) T1 ) )
(or ( <= ( + T1 90 )  ( + T8 46 ) ) ( <= ( + T8 82 )( + T1 60 ) ) )
(or ( <= ( + T1 137 )  ( + T8 82 ) ) ( <= ( + T8 111 )( + T1 90 ) ) )
(or ( <= ( + T1 161 )  ( + T8 111 ) ) ( <= ( + T8 186 )( + T1 137 ) ) )
(or ( <= ( + T1 257 )  ( + T8 186 ) ) ( <= ( + T8 267 )( + T1 161 ) ) )
(or ( <= ( + T1 311 )  ( + T8 267 ) ) ( <= ( + T8 275 )( + T1 257 ) ) )
(or ( <= ( + T2 26 ) T3 ) ( <= ( + T3 26 ) T2 ) )
(or ( <= ( + T2 118 )  ( + T3 26 ) ) ( <= ( + T3 34 )( + T2 26 ) ) )
(or ( <= ( + T2 128 )  ( + T3 34 ) ) ( <= ( + T3 63 )( + T2 118 ) ) )
(or ( <= ( + T2 174 )  ( + T3 63 ) ) ( <= ( + T3 157 )( + T2 128 ) ) )
(or ( <= ( + T2 242 )  ( + T3 157 ) ) ( <= ( + T3 185 )( + T2 174 ) ) )
(or ( <= ( + T2 314 )  ( + T3 185 ) ) ( <= ( + T3 268 )( + T2 242 ) ) )
(or ( <= ( + T2 26 ) T4 ) ( <= ( + T4 41 ) T2 ) )
(or ( <= ( + T2 118 )  ( + T4 41 ) ) ( <= ( + T4 69 )( + T2 26 ) ) )
(or ( <= ( + T2 128 )  ( + T4 69 ) ) ( <= ( + T4 117 )( + T2 118 ) ) )
(or ( <= ( + T2 174 )  ( + T4 117 ) ) ( <= ( + T4 185 )( + T2 128 ) ) )
(or ( <= ( + T2 242 )  ( + T4 185 ) ) ( <= ( + T4 277 )( + T2 174 ) ) )
(or ( <= ( + T2 314 )  ( + T4 277 ) ) ( <= ( + T4 278 )( + T2 242 ) ) )
(or ( <= ( + T2 26 ) T5 ) ( <= ( + T5 54 ) T2 ) )
(or ( <= ( + T2 118 )  ( + T5 54 ) ) ( <= ( + T5 86 )( + T2 26 ) ) )
(or ( <= ( + T2 128 )  ( + T5 86 ) ) ( <= ( + T5 154 )( + T2 118 ) ) )
(or ( <= ( + T2 174 )  ( + T5 154 ) ) ( <= ( + T5 214 )( + T2 128 ) ) )
(or ( <= ( + T2 242 )  ( + T5 214 ) ) ( <= ( + T5 267 )( + T2 174 ) ) )
(or ( <= ( + T2 314 )  ( + T5 267 ) ) ( <= ( + T5 349 )( + T2 242 ) ) )
(or ( <= ( + T2 26 ) T6 ) ( <= ( + T6 62 ) T2 ) )
(or ( <= ( + T2 118 )  ( + T6 62 ) ) ( <= ( + T6 126 )( + T2 26 ) ) )
(or ( <= ( + T2 128 )  ( + T6 126 ) ) ( <= ( + T6 137 )( + T2 118 ) ) )
(or ( <= ( + T2 174 )  ( + T6 137 ) ) ( <= ( + T6 198 )( + T2 128 ) ) )
(or ( <= ( + T2 242 )  ( + T6 198 ) ) ( <= ( + T6 285 )( + T2 174 ) ) )
(or ( <= ( + T2 314 )  ( + T6 285 ) ) ( <= ( + T6 344 )( + T2 242 ) ) )
(or ( <= ( + T2 26 ) T7 ) ( <= ( + T7 14 ) T2 ) )
(or ( <= ( + T2 118 )  ( + T7 14 ) ) ( <= ( + T7 79 )( + T2 26 ) ) )
(or ( <= ( + T2 128 )  ( + T7 79 ) ) ( <= ( + T7 81 )( + T2 118 ) ) )
(or ( <= ( + T2 174 )  ( + T7 81 ) ) ( <= ( + T7 156 )( + T2 128 ) ) )
(or ( <= ( + T2 242 )  ( + T7 156 ) ) ( <= ( + T7 166 )( + T2 174 ) ) )
(or ( <= ( + T2 314 )  ( + T7 166 ) ) ( <= ( + T7 188 )( + T2 242 ) ) )
(or ( <= ( + T2 26 ) T8 ) ( <= ( + T8 46 ) T2 ) )
(or ( <= ( + T2 118 )  ( + T8 46 ) ) ( <= ( + T8 82 )( + T2 26 ) ) )
(or ( <= ( + T2 128 )  ( + T8 82 ) ) ( <= ( + T8 111 )( + T2 118 ) ) )
(or ( <= ( + T2 174 )  ( + T8 111 ) ) ( <= ( + T8 186 )( + T2 128 ) ) )
(or ( <= ( + T2 242 )  ( + T8 186 ) ) ( <= ( + T8 267 )( + T2 174 ) ) )
(or ( <= ( + T2 314 )  ( + T8 267 ) ) ( <= ( + T8 275 )( + T2 242 ) ) )
(or ( <= ( + T3 26 ) T4 ) ( <= ( + T4 41 ) T3 ) )
(or ( <= ( + T3 34 )  ( + T4 41 ) ) ( <= ( + T4 69 )( + T3 26 ) ) )
(or ( <= ( + T3 63 )  ( + T4 69 ) ) ( <= ( + T4 117 )( + T3 34 ) ) )
(or ( <= ( + T3 157 )  ( + T4 117 ) ) ( <= ( + T4 185 )( + T3 63 ) ) )
(or ( <= ( + T3 185 )  ( + T4 185 ) ) ( <= ( + T4 277 )( + T3 157 ) ) )
(or ( <= ( + T3 268 )  ( + T4 277 ) ) ( <= ( + T4 278 )( + T3 185 ) ) )
(or ( <= ( + T3 26 ) T5 ) ( <= ( + T5 54 ) T3 ) )
(or ( <= ( + T3 34 )  ( + T5 54 ) ) ( <= ( + T5 86 )( + T3 26 ) ) )
(or ( <= ( + T3 63 )  ( + T5 86 ) ) ( <= ( + T5 154 )( + T3 34 ) ) )
(or ( <= ( + T3 157 )  ( + T5 154 ) ) ( <= ( + T5 214 )( + T3 63 ) ) )
(or ( <= ( + T3 185 )  ( + T5 214 ) ) ( <= ( + T5 267 )( + T3 157 ) ) )
(or ( <= ( + T3 268 )  ( + T5 267 ) ) ( <= ( + T5 349 )( + T3 185 ) ) )
(or ( <= ( + T3 26 ) T6 ) ( <= ( + T6 62 ) T3 ) )
(or ( <= ( + T3 34 )  ( + T6 62 ) ) ( <= ( + T6 126 )( + T3 26 ) ) )
(or ( <= ( + T3 63 )  ( + T6 126 ) ) ( <= ( + T6 137 )( + T3 34 ) ) )
(or ( <= ( + T3 157 )  ( + T6 137 ) ) ( <= ( + T6 198 )( + T3 63 ) ) )
(or ( <= ( + T3 185 )  ( + T6 198 ) ) ( <= ( + T6 285 )( + T3 157 ) ) )
(or ( <= ( + T3 268 )  ( + T6 285 ) ) ( <= ( + T6 344 )( + T3 185 ) ) )
(or ( <= ( + T3 26 ) T7 ) ( <= ( + T7 14 ) T3 ) )
(or ( <= ( + T3 34 )  ( + T7 14 ) ) ( <= ( + T7 79 )( + T3 26 ) ) )
(or ( <= ( + T3 63 )  ( + T7 79 ) ) ( <= ( + T7 81 )( + T3 34 ) ) )
(or ( <= ( + T3 157 )  ( + T7 81 ) ) ( <= ( + T7 156 )( + T3 63 ) ) )
(or ( <= ( + T3 185 )  ( + T7 156 ) ) ( <= ( + T7 166 )( + T3 157 ) ) )
(or ( <= ( + T3 268 )  ( + T7 166 ) ) ( <= ( + T7 188 )( + T3 185 ) ) )
(or ( <= ( + T3 26 ) T8 ) ( <= ( + T8 46 ) T3 ) )
(or ( <= ( + T3 34 )  ( + T8 46 ) ) ( <= ( + T8 82 )( + T3 26 ) ) )
(or ( <= ( + T3 63 )  ( + T8 82 ) ) ( <= ( + T8 111 )( + T3 34 ) ) )
(or ( <= ( + T3 157 )  ( + T8 111 ) ) ( <= ( + T8 186 )( + T3 63 ) ) )
(or ( <= ( + T3 185 )  ( + T8 186 ) ) ( <= ( + T8 267 )( + T3 157 ) ) )
(or ( <= ( + T3 268 )  ( + T8 267 ) ) ( <= ( + T8 275 )( + T3 185 ) ) )
(or ( <= ( + T4 41 ) T5 ) ( <= ( + T5 54 ) T4 ) )
(or ( <= ( + T4 69 )  ( + T5 54 ) ) ( <= ( + T5 86 )( + T4 41 ) ) )
(or ( <= ( + T4 117 )  ( + T5 86 ) ) ( <= ( + T5 154 )( + T4 69 ) ) )
(or ( <= ( + T4 185 )  ( + T5 154 ) ) ( <= ( + T5 214 )( + T4 117 ) ) )
(or ( <= ( + T4 277 )  ( + T5 214 ) ) ( <= ( + T5 267 )( + T4 185 ) ) )
(or ( <= ( + T4 278 )  ( + T5 267 ) ) ( <= ( + T5 349 )( + T4 277 ) ) )
(or ( <= ( + T4 41 ) T6 ) ( <= ( + T6 62 ) T4 ) )
(or ( <= ( + T4 69 )  ( + T6 62 ) ) ( <= ( + T6 126 )( + T4 41 ) ) )
(or ( <= ( + T4 117 )  ( + T6 126 ) ) ( <= ( + T6 137 )( + T4 69 ) ) )
(or ( <= ( + T4 185 )  ( + T6 137 ) ) ( <= ( + T6 198 )( + T4 117 ) ) )
(or ( <= ( + T4 277 )  ( + T6 198 ) ) ( <= ( + T6 285 )( + T4 185 ) ) )
(or ( <= ( + T4 278 )  ( + T6 285 ) ) ( <= ( + T6 344 )( + T4 277 ) ) )
(or ( <= ( + T4 41 ) T7 ) ( <= ( + T7 14 ) T4 ) )
(or ( <= ( + T4 69 )  ( + T7 14 ) ) ( <= ( + T7 79 )( + T4 41 ) ) )
(or ( <= ( + T4 117 )  ( + T7 79 ) ) ( <= ( + T7 81 )( + T4 69 ) ) )
(or ( <= ( + T4 185 )  ( + T7 81 ) ) ( <= ( + T7 156 )( + T4 117 ) ) )
(or ( <= ( + T4 277 )  ( + T7 156 ) ) ( <= ( + T7 166 )( + T4 185 ) ) )
(or ( <= ( + T4 278 )  ( + T7 166 ) ) ( <= ( + T7 188 )( + T4 277 ) ) )
(or ( <= ( + T4 41 ) T8 ) ( <= ( + T8 46 ) T4 ) )
(or ( <= ( + T4 69 )  ( + T8 46 ) ) ( <= ( + T8 82 )( + T4 41 ) ) )
(or ( <= ( + T4 117 )  ( + T8 82 ) ) ( <= ( + T8 111 )( + T4 69 ) ) )
(or ( <= ( + T4 185 )  ( + T8 111 ) ) ( <= ( + T8 186 )( + T4 117 ) ) )
(or ( <= ( + T4 277 )  ( + T8 186 ) ) ( <= ( + T8 267 )( + T4 185 ) ) )
(or ( <= ( + T4 278 )  ( + T8 267 ) ) ( <= ( + T8 275 )( + T4 277 ) ) )
(or ( <= ( + T5 54 ) T6 ) ( <= ( + T6 62 ) T5 ) )
(or ( <= ( + T5 86 )  ( + T6 62 ) ) ( <= ( + T6 126 )( + T5 54 ) ) )
(or ( <= ( + T5 154 )  ( + T6 126 ) ) ( <= ( + T6 137 )( + T5 86 ) ) )
(or ( <= ( + T5 214 )  ( + T6 137 ) ) ( <= ( + T6 198 )( + T5 154 ) ) )
(or ( <= ( + T5 267 )  ( + T6 198 ) ) ( <= ( + T6 285 )( + T5 214 ) ) )
(or ( <= ( + T5 349 )  ( + T6 285 ) ) ( <= ( + T6 344 )( + T5 267 ) ) )
(or ( <= ( + T5 54 ) T7 ) ( <= ( + T7 14 ) T5 ) )
(or ( <= ( + T5 86 )  ( + T7 14 ) ) ( <= ( + T7 79 )( + T5 54 ) ) )
(or ( <= ( + T5 154 )  ( + T7 79 ) ) ( <= ( + T7 81 )( + T5 86 ) ) )
(or ( <= ( + T5 214 )  ( + T7 81 ) ) ( <= ( + T7 156 )( + T5 154 ) ) )
(or ( <= ( + T5 267 )  ( + T7 156 ) ) ( <= ( + T7 166 )( + T5 214 ) ) )
(or ( <= ( + T5 349 )  ( + T7 166 ) ) ( <= ( + T7 188 )( + T5 267 ) ) )
(or ( <= ( + T5 54 ) T8 ) ( <= ( + T8 46 ) T5 ) )
(or ( <= ( + T5 86 )  ( + T8 46 ) ) ( <= ( + T8 82 )( + T5 54 ) ) )
(or ( <= ( + T5 154 )  ( + T8 82 ) ) ( <= ( + T8 111 )( + T5 86 ) ) )
(or ( <= ( + T5 214 )  ( + T8 111 ) ) ( <= ( + T8 186 )( + T5 154 ) ) )
(or ( <= ( + T5 267 )  ( + T8 186 ) ) ( <= ( + T8 267 )( + T5 214 ) ) )
(or ( <= ( + T5 349 )  ( + T8 267 ) ) ( <= ( + T8 275 )( + T5 267 ) ) )
(or ( <= ( + T6 62 ) T7 ) ( <= ( + T7 14 ) T6 ) )
(or ( <= ( + T6 126 )  ( + T7 14 ) ) ( <= ( + T7 79 )( + T6 62 ) ) )
(or ( <= ( + T6 137 )  ( + T7 79 ) ) ( <= ( + T7 81 )( + T6 126 ) ) )
(or ( <= ( + T6 198 )  ( + T7 81 ) ) ( <= ( + T7 156 )( + T6 137 ) ) )
(or ( <= ( + T6 285 )  ( + T7 156 ) ) ( <= ( + T7 166 )( + T6 198 ) ) )
(or ( <= ( + T6 344 )  ( + T7 166 ) ) ( <= ( + T7 188 )( + T6 285 ) ) )
(or ( <= ( + T6 62 ) T8 ) ( <= ( + T8 46 ) T6 ) )
(or ( <= ( + T6 126 )  ( + T8 46 ) ) ( <= ( + T8 82 )( + T6 62 ) ) )
(or ( <= ( + T6 137 )  ( + T8 82 ) ) ( <= ( + T8 111 )( + T6 126 ) ) )
(or ( <= ( + T6 198 )  ( + T8 111 ) ) ( <= ( + T8 186 )( + T6 137 ) ) )
(or ( <= ( + T6 285 )  ( + T8 186 ) ) ( <= ( + T8 267 )( + T6 198 ) ) )
(or ( <= ( + T6 344 )  ( + T8 267 ) ) ( <= ( + T8 275 )( + T6 285 ) ) )
(or ( <= ( + T7 14 ) T8 ) ( <= ( + T8 46 ) T7 ) )
(or ( <= ( + T7 79 )  ( + T8 46 ) ) ( <= ( + T8 82 )( + T7 14 ) ) )
(or ( <= ( + T7 81 )  ( + T8 82 ) ) ( <= ( + T8 111 )( + T7 79 ) ) )
(or ( <= ( + T7 156 )  ( + T8 111 ) ) ( <= ( + T8 186 )( + T7 81 ) ) )
(or ( <= ( + T7 166 )  ( + T8 186 ) ) ( <= ( + T8 267 )( + T7 156 ) ) )
(or ( <= ( + T7 188 )  ( + T8 267 ) ) ( <= ( + T8 275 )( + T7 166 ) ) )
( <= ( + T1 311 ) Z)
( <= ( + T2 314 ) Z)
( <= ( + T3 268 ) Z)
( <= ( + T4 278 ) Z)
( <= ( + T5 349 ) Z)
( <= ( + T6 344 ) Z)
( <= ( + T7 188 ) Z)
( <= ( + T8 275 ) Z)
( >= T1 0 )
( >= T2 0 )
( >= T3 0 )
( >= T4 0 )
( >= T5 0 )
( >= T6 0 )
( >= T7 0 )
( >= T8 0 )
) )
(minimize Z)
(check-sat)